************************************************************************
file with basedata            : md373_.bas
initial value random generator: 1403590613
************************************************************************
projects                      :  1
jobs (incl. supersource/sink ):  22
horizon                       :  167
RESOURCES
  - renewable                 :  2   R
  - nonrenewable              :  2   N
  - doubly constrained        :  0   D
************************************************************************
PROJECT INFORMATION:
pronr.  #jobs rel.date duedate tardcost  MPM-Time
    1     20      0       26        7       26
************************************************************************
PRECEDENCE RELATIONS:
jobnr.    #modes  #successors   successors
   1        1          3           2   3   4
   2        3          2           5   6
   3        3          3           7   9  16
   4        3          3           8  10  18
   5        3          3          13  14  15
   6        3          1           8
   7        3          2          11  12
   8        3          3          11  15  20
   9        3          3          15  17  18
  10        3          3          12  14  16
  11        3          1          14
  12        3          1          19
  13        3          2          17  18
  14        3          1          17
  15        3          1          21
  16        3          2          20  21
  17        3          2          19  21
  18        3          1          20
  19        3          1          22
  20        3          1          22
  21        3          1          22
  22        1          0        
************************************************************************
REQUESTS/DURATIONS:
jobnr. mode duration  R 1  R 2  N 1  N 2
------------------------------------------------------------------------
  1      1     0       0    0    0    0
  2      1     1       9    8    3    6
         2     7       7    7    3    5
         3     8       5    7    3    5
  3      1     1       4    8   10    7
         2     6       4    8    7    6
         3     9       3    7    6    3
  4      1     1       7    2    6    9
         2     5       4    2    4    7
         3    10       4    2    4    4
  5      1     2       3    5    4    5
         2     4       2    4    3    4
         3     9       2    4    2    4
  6      1     6       6    3    7    5
         2    10       6    3    5    4
         3    10       3    3    6    4
  7      1     2       4    6    8   10
         2     3       1    6    6    5
         3     3       1    5    6    6
  8      1     3       5    4    3   10
         2     8       4    4    2    8
         3     9       4    3    2    6
  9      1     4       8    8    9    7
         2     7       3    7    6    5
         3     7       5    7    6    3
 10      1     6      10    3    8    9
         2     8       8    3    7    8
         3     9       4    1    6    8
 11      1     1       6    7    8    6
         2     3       3    7    4    6
         3     8       3    5    4    5
 12      1     4       3    8   10    8
         2     5       2    7    7    7
         3    10       1    6    2    7
 13      1     2       5    4    6    5
         2     5       4    3    5    3
         3     9       4    1    3    2
 14      1     6       7    8    9   10
         2     6       6   10    9    7
         3     9       3    8    9    6
 15      1     2       9    6    6    9
         2     5       8    3    3    9
         3     7       6    1    2    8
 16      1     1       3    7   10    8
         2     5       2    7    7    4
         3     9       1    6    7    4
 17      1     6       7    7    3    4
         2     6       5    7    4    5
         3     7       5    7    1    4
 18      1     1       7    9    5    9
         2     6       6    6    4    8
         3    10       6    5    4    8
 19      1     2       9    7    8    4
         2     3       8    7    7    4
         3     5       8    7    4    3
 20      1     4       7    4    4    6
         2    10       3    4    4    4
         3    10       4    4    3    4
 21      1     3       3    8    7    3
         2     9       3    8    4    1
         3     9       2    8    5    1
 22      1     0       0    0    0    0
************************************************************************
RESOURCEAVAILABILITIES:
  R 1  R 2  N 1  N 2
   14   12  122  129
************************************************************************
MAXIMAL LAGS:
from  to  type  delay
    1   12   ES      0
    1    2   ES      0
    2   12   ES      0
    1    3   ES      0
    3   12   ES      0
    1    4   ES      0
    4   12   ES      0
    1    5   ES      0
    5   12   ES      0
    1    6   ES      0
    6   12   ES      0
    1    7   ES      0
    7   12   ES      0
    1    8   ES      0
    8   12   ES      0
    1    9   ES      0
    9   12   ES      0
    1   10   ES      0
   10   12   ES      0
    1   11   ES      0
   11   12   ES      0
    1   12   ES      0
    2    5   SS      8
    2    5   SE     12
    2    5   ES      7
    2    5   EE     -3
    2    6   SS     -6
    2    6   SE     10
    2    6   ES     -1
    2    6   EE    -11
    3    7   SS    -11
    3    7   SE      3
    3    7   ES      7
    3    7   EE      0
    3    9   SS     -9
    3    9   SE      1
    3    9   ES     -1
    3    9   EE     -5
    3   16   SS      3
    3   16   SE      3
    3   16   ES     12
    3   16   EE      2
    4    8   SS      9
    4    8   SE      4
    4    8   ES     -4
    4    8   EE     -8
    4   10   SS     -4
    4   10   SE      3
    4   10   ES     -9
    4   10   EE      1
    4   18   SS     -3
    4   18   SE      6
    4   18   ES    -10
    4   18   EE      6
    5   13   SS     -9
    5   13   SE      0
    5   13   ES     -6
    5   13   EE      9
    5   14   SS      1
    5   14   SE      6
    5   14   ES     -2
    5   14   EE    -12
    5   15   SS      9
    5   15   SE      3
    5   15   ES     -7
    5   15   EE     -2
    6    8   SS      7
    6    8   SE     -7
    6    8   ES     -1
    6    8   EE    -11
    7   11   SS     -9
    7   11   SE      0
    7   11   ES      7
    7   11   EE    -10
    8   11   SS     -1
    8   11   SE      1
    8   11   ES      7
    8   11   EE      3
    8   15   SS      4
    8   15   SE    -11
    8   15   ES      3
    8   15   EE      7
    8   20   SS      4
    8   20   SE     -8
    8   20   ES     -6
    8   20   EE    -11
    9   15   SS      3
    9   15   SE      9
    9   15   ES    -11
    9   15   EE    -12
    9   17   SS      4
    9   17   SE    -10
    9   17   ES     -6
    9   17   EE     -6
    9   18   SS     12
    9   18   SE     11
    9   18   ES     -3
    9   18   EE     11
   10   14   SS      6
   10   14   SE    -12
   10   14   ES     -8
   10   14   EE     -6
   10   16   SS     12
   10   16   SE      3
   10   16   ES     -3
   10   16   EE     -5
   11   14   SS     -7
   11   14   SE      1
   11   14   ES      6
   11   14   EE     10
   12   19   SS     -7
   12   19   SE     12
   12   19   ES     12
   12   19   EE     -4
   13   17   SS      7
   13   17   SE     -3
   13   17   ES     -9
   13   17   EE      5
   13   18   SS    -12
   13   18   SE    -10
   13   18   ES     10
   13   18   EE      0
   14   17   SS      9
   14   17   SE      6
   14   17   ES      8
   14   17   EE     -1
   15   21   SS      7
   15   21   SE      7
   15   21   ES     -9
   15   21   EE     -9
   16   20   SS      8
   16   20   SE     10
   16   20   ES     -7
   16   20   EE      6
   16   21   SS     -3
   16   21   SE      1
   16   21   ES     -4
   16   21   EE    -11
   17   19   SS     -5
   17   19   SE    -10
   17   19   ES     -9
   17   19   EE      5
   17   21   SS     -8
   17   21   SE      5
   17   21   ES      2
   17   21   EE      7
   18   20   SS     -9
   18   20   SE     -4
   18   20   ES      1
   18   20   EE     -1
   19   22   SS      6
   19   22   SE     -1
   19   22   ES     -9
   19   22   EE    -10
   20   22   SS      8
   20   22   SE     -8
   20   22   ES    -12
   20   22   EE     -6
   21   22   SS     -5
   21   22   SE      6
   21   22   ES     11
   21   22   EE    -11
************************************************************************
